10
1 0 6
2 0 4
2 1 7
3 0 5
3 1 6
3 2 4
4 0 2
4 1 5
4 2 1
4 3 4
5 0 8
5 1 10
5 2 5
5 3 6
5 4 7
6 0 9
6 1 1
6 2 6
6 3 7
6 4 5
6 5 9
7 0 6
7 1 4
7 2 8
7 3 5
7 4 5
7 5 9
7 6 10
8 0 4
8 1 5
8 2 10
8 3 10
8 4 7
8 5 2
8 6 2
8 7 7
9 0 2
9 1 7
9 2 9
9 3 6
9 4 5
9 5 2
9 6 8
9 7 3
9 8 3
